c description: Random 3-CNF over 12 variables and 24 clauses
p cnf 12 24
-5 6 9 0
-4 7 -8 0
-4 -6 10 0
4 7 12 0
7 -8 -12 0
7 8 -10 0
2 -7 12 0
2 3 -5 0
-5 -6 7 0
-1 4 10 0
-2 4 -12 0
2 -7 10 0
2 -6 9 0
-6 -7 8 0
3 -9 -11 0
3 7 12 0
-7 8 10 0
3 9 -10 0
-2 7 10 0
-2 -10 -12 0
-7 11 -12 0
6 10 11 0
4 -9 -11 0
5 -7 -11 0